2541445
13 47 9114
47 1 14424
1 12 10465
12 4 32363
4 20 4440
20 54 26561
54 48 35659
48 2 7938
2 27 15575
27 17 1445
17 9 5356
9 45 14659
45 58 16177
58 15 6904
15 8 6874
8 36 11459
36 68 44808
68 35 19070
35 51 8926
51 53 22183
53 37 6554
37 39 23178
39 62 8740
62 28 93528
28 31 65445
31 22 39447
22 59 122532
59 16 10880
16 63 14689
63 50 50449
50 52 133246
52 14 39276
14 44 62420
44 57 99702
57 18 27906
18 10 28652
10 33 140980
33 65 293477
65 32 49615
32 42 5759
42 61 10110
61 3 12947
3 21 17216
21 24 30212
24 56 19186
56 40 3489
40 5 3130
5 60 7979
60 23 7498
23 49 4353
49 19 8895
19 29 21654
29 25 9940
25 30 1249
30 41 5056
41 6 10602
6 64 32039
64 11 35955
11 67 45840
67 7 19183
7 34 42208
34 43 66399
43 38 71683
38 55 88413
55 46 30985
46 66 78618
66 26 57991
26 13 167736
